
(set-logic QF_BV)
(declare-fun x () (_ BitVec 57))
(declare-fun y () (_ BitVec 57))
(define-fun mins () (_ BitVec 57) (_ bv72057594037927936 57))
(define-fun negative ((a (_ BitVec 57))) Bool (bvuge a (_ bv72057594037927936 57)))
(define-fun abs ((a (_ BitVec 57))) (_ BitVec 57) (ite (negative a) (bvneg a) a))
(define-fun u ((a (_ BitVec 57)) (b (_ BitVec 57))) (_ BitVec 57) (bvurem (abs a) (abs b)))
(define-fun neg_u ((a (_ BitVec 57)) (b (_ BitVec 57))) (_ BitVec 57) (bvneg (u a b)))
(define-fun cond_0 () Bool (= (u x y) (_ bv0 57)))
(define-fun cond_1 () Bool (and (not (negative x)) (not (negative y))))
(define-fun cond_2 () Bool (and (negative x) (not (negative y))))
(define-fun cond_3 () Bool (and (not (negative x)) (negative y)))
(define-fun left () (_ BitVec 57) (bvsmod x y))
(define-fun right () (_ BitVec 57) (ite cond_0 (u x y) (ite cond_1 (u x y) (ite cond_2 (bvadd (neg_u x y) y) (ite cond_3 (bvadd (u x y) y) (neg_u x y))))))
(assert (distinct left right))
(check-sat)
